32	0

0	1	2
8	1	3
2	1	4
10	1	5
2	1	6
7	1	7
2	2	8	10
1	1	9
8	1	11
6	1	11
4	2	12	14
2	1	13
5	1	15
8	1	16
1	1	16
5	1	17
5	1	18
9	1	19
2	1	20
3	1	21
8	1	22
2	1	23
1	2	24	25
9	1	26
9	1	26
3	1	27
9	1	28
7	2	29	30
6	1	31
10	1	31
1	1	32
0	0
